p cnf 320 833
1 194 -2 0
1 -194 2 0
-1 194 2 0
-1 -194 -2 0
1 0
2 4 -3 0
2 -4 3 0
-2 4 3 0
-2 -4 -3 0
3 195 -68 0
3 -195 68 0
-3 195 68 0
-3 -195 -68 0
4 -5 0
4 -70 0
-4 70 5 0
-5 6 0
-5 71 0
5 -71 -6 0
6 -7 0
6 -74 0
-6 74 7 0
-7 8 0
-7 75 0
7 -75 -8 0
8 -9 0
8 -78 0
-8 78 9 0
-9 10 0
-9 79 0
9 -79 -10 0
10 -11 0
10 -82 0
-10 82 11 0
-11 12 0
-11 83 0
11 -83 -12 0
12 -13 0
12 -86 0
-12 86 13 0
-13 14 0
-13 87 0
13 -87 -14 0
14 -15 0
14 -90 0
-14 90 15 0
-15 16 0
-15 91 0
15 -91 -16 0
16 -17 0
16 -94 0
-16 94 17 0
-17 18 0
-17 95 0
17 -95 -18 0
18 -19 0
18 -98 0
-18 98 19 0
-19 20 0
-19 99 0
19 -99 -20 0
20 -21 0
20 -102 0
-20 102 21 0
-21 22 0
-21 103 0
21 -103 -22 0
22 -23 0
22 -106 0
-22 106 23 0
-23 24 0
-23 107 0
23 -107 -24 0
24 -25 0
24 -110 0
-24 110 25 0
-25 26 0
-25 111 0
25 -111 -26 0
26 -27 0
26 -114 0
-26 114 27 0
-27 28 0
-27 115 0
27 -115 -28 0
28 -29 0
28 -118 0
-28 118 29 0
-29 30 0
-29 119 0
29 -119 -30 0
30 -31 0
30 -122 0
-30 122 31 0
-31 32 0
-31 123 0
31 -123 -32 0
32 -33 0
32 -126 0
-32 126 33 0
-33 34 0
-33 127 0
33 -127 -34 0
34 -35 0
34 -130 0
-34 130 35 0
-35 36 0
-35 131 0
35 -131 -36 0
36 -37 0
36 -134 0
-36 134 37 0
-37 38 0
-37 135 0
37 -135 -38 0
38 -39 0
38 -138 0
-38 138 39 0
-39 40 0
-39 139 0
39 -139 -40 0
40 -41 0
40 -142 0
-40 142 41 0
-41 42 0
-41 143 0
41 -143 -42 0
42 -43 0
42 -146 0
-42 146 43 0
-43 44 0
-43 147 0
43 -147 -44 0
44 -45 0
44 -150 0
-44 150 45 0
-45 46 0
-45 151 0
45 -151 -46 0
46 -47 0
46 -154 0
-46 154 47 0
-47 48 0
-47 155 0
47 -155 -48 0
48 -49 0
48 -158 0
-48 158 49 0
-49 50 0
-49 159 0
49 -159 -50 0
50 -51 0
50 -162 0
-50 162 51 0
-51 52 0
-51 163 0
51 -163 -52 0
52 -53 0
52 -166 0
-52 166 53 0
-53 54 0
-53 167 0
53 -167 -54 0
54 -55 0
54 -170 0
-54 170 55 0
-55 56 0
-55 171 0
55 -171 -56 0
56 -57 0
56 -174 0
-56 174 57 0
-57 58 0
-57 175 0
57 -175 -58 0
58 -59 0
58 -178 0
-58 178 59 0
-59 60 0
-59 179 0
59 -179 -60 0
60 -61 0
60 -182 0
-60 182 61 0
-61 62 0
-61 183 0
61 -183 -62 0
62 -63 0
62 -186 0
-62 186 63 0
-63 64 0
-63 187 0
63 -187 -64 0
64 -65 0
64 -190 0
-64 190 65 0
-65 191 0
-65 318 0
65 -318 -191 0
-66 68 0
-66 195 0
66 -195 -68 0
67 -68 0
67 -195 0
-67 195 68 0
68 318 -69 0
68 -318 69 0
-68 318 69 0
-68 -318 -69 0
-70 72 0
-70 199 0
70 -199 -72 0
71 -72 0
71 -199 0
-71 199 72 0
72 318 -73 0
72 -318 73 0
-72 318 73 0
-72 -318 -73 0
-74 76 0
-74 203 0
74 -203 -76 0
75 -76 0
75 -203 0
-75 203 76 0
76 318 -77 0
76 -318 77 0
-76 318 77 0
-76 -318 -77 0
-78 80 0
-78 207 0
78 -207 -80 0
79 -80 0
79 -207 0
-79 207 80 0
80 318 -81 0
80 -318 81 0
-80 318 81 0
-80 -318 -81 0
-82 84 0
-82 211 0
82 -211 -84 0
83 -84 0
83 -211 0
-83 211 84 0
84 318 -85 0
84 -318 85 0
-84 318 85 0
-84 -318 -85 0
-86 88 0
-86 215 0
86 -215 -88 0
87 -88 0
87 -215 0
-87 215 88 0
88 318 -89 0
88 -318 89 0
-88 318 89 0
-88 -318 -89 0
-90 92 0
-90 219 0
90 -219 -92 0
91 -92 0
91 -219 0
-91 219 92 0
92 318 -93 0
92 -318 93 0
-92 318 93 0
-92 -318 -93 0
-94 96 0
-94 223 0
94 -223 -96 0
95 -96 0
95 -223 0
-95 223 96 0
96 318 -97 0
96 -318 97 0
-96 318 97 0
-96 -318 -97 0
-98 100 0
-98 227 0
98 -227 -100 0
99 -100 0
99 -227 0
-99 227 100 0
100 318 -101 0
100 -318 101 0
-100 318 101 0
-100 -318 -101 0
-102 104 0
-102 231 0
102 -231 -104 0
103 -104 0
103 -231 0
-103 231 104 0
104 318 -105 0
104 -318 105 0
-104 318 105 0
-104 -318 -105 0
-106 108 0
-106 235 0
106 -235 -108 0
107 -108 0
107 -235 0
-107 235 108 0
108 318 -109 0
108 -318 109 0
-108 318 109 0
-108 -318 -109 0
-110 112 0
-110 239 0
110 -239 -112 0
111 -112 0
111 -239 0
-111 239 112 0
112 318 -113 0
112 -318 113 0
-112 318 113 0
-112 -318 -113 0
-114 116 0
-114 243 0
114 -243 -116 0
115 -116 0
115 -243 0
-115 243 116 0
116 318 -117 0
116 -318 117 0
-116 318 117 0
-116 -318 -117 0
-118 120 0
-118 247 0
118 -247 -120 0
119 -120 0
119 -247 0
-119 247 120 0
120 318 -121 0
120 -318 121 0
-120 318 121 0
-120 -318 -121 0
-122 124 0
-122 251 0
122 -251 -124 0
123 -124 0
123 -251 0
-123 251 124 0
124 318 -125 0
124 -318 125 0
-124 318 125 0
-124 -318 -125 0
-126 128 0
-126 255 0
126 -255 -128 0
127 -128 0
127 -255 0
-127 255 128 0
128 318 -129 0
128 -318 129 0
-128 318 129 0
-128 -318 -129 0
-130 132 0
-130 259 0
130 -259 -132 0
131 -132 0
131 -259 0
-131 259 132 0
132 318 -133 0
132 -318 133 0
-132 318 133 0
-132 -318 -133 0
-134 136 0
-134 263 0
134 -263 -136 0
135 -136 0
135 -263 0
-135 263 136 0
136 318 -137 0
136 -318 137 0
-136 318 137 0
-136 -318 -137 0
-138 140 0
-138 267 0
138 -267 -140 0
139 -140 0
139 -267 0
-139 267 140 0
140 318 -141 0
140 -318 141 0
-140 318 141 0
-140 -318 -141 0
-142 144 0
-142 271 0
142 -271 -144 0
143 -144 0
143 -271 0
-143 271 144 0
144 318 -145 0
144 -318 145 0
-144 318 145 0
-144 -318 -145 0
-146 148 0
-146 275 0
146 -275 -148 0
147 -148 0
147 -275 0
-147 275 148 0
148 318 -149 0
148 -318 149 0
-148 318 149 0
-148 -318 -149 0
-150 152 0
-150 279 0
150 -279 -152 0
151 -152 0
151 -279 0
-151 279 152 0
152 318 -153 0
152 -318 153 0
-152 318 153 0
-152 -318 -153 0
-154 156 0
-154 283 0
154 -283 -156 0
155 -156 0
155 -283 0
-155 283 156 0
156 318 -157 0
156 -318 157 0
-156 318 157 0
-156 -318 -157 0
-158 160 0
-158 287 0
158 -287 -160 0
159 -160 0
159 -287 0
-159 287 160 0
160 318 -161 0
160 -318 161 0
-160 318 161 0
-160 -318 -161 0
-162 164 0
-162 291 0
162 -291 -164 0
163 -164 0
163 -291 0
-163 291 164 0
164 318 -165 0
164 -318 165 0
-164 318 165 0
-164 -318 -165 0
-166 168 0
-166 295 0
166 -295 -168 0
167 -168 0
167 -295 0
-167 295 168 0
168 318 -169 0
168 -318 169 0
-168 318 169 0
-168 -318 -169 0
-170 172 0
-170 299 0
170 -299 -172 0
171 -172 0
171 -299 0
-171 299 172 0
172 318 -173 0
172 -318 173 0
-172 318 173 0
-172 -318 -173 0
-174 176 0
-174 303 0
174 -303 -176 0
175 -176 0
175 -303 0
-175 303 176 0
176 318 -177 0
176 -318 177 0
-176 318 177 0
-176 -318 -177 0
-178 180 0
-178 307 0
178 -307 -180 0
179 -180 0
179 -307 0
-179 307 180 0
180 318 -181 0
180 -318 181 0
-180 318 181 0
-180 -318 -181 0
-182 184 0
-182 311 0
182 -311 -184 0
183 -184 0
183 -311 0
-183 311 184 0
184 318 -185 0
184 -318 185 0
-184 318 185 0
-184 -318 -185 0
-186 188 0
-186 315 0
186 -315 -188 0
187 -188 0
187 -315 0
-187 315 188 0
188 318 -189 0
188 -318 189 0
-188 318 189 0
-188 -318 -189 0
-190 192 0
-190 320 0
190 -320 -192 0
191 -192 0
191 -320 0
-191 320 192 0
192 318 -193 0
192 -318 193 0
-192 318 193 0
-192 -318 -193 0
194 196 -3 0
194 -196 3 0
-194 196 3 0
-194 -196 -3 0
196 -70 0
196 -197 0
-196 197 70 0
-197 198 0
-197 200 0
197 -200 -198 0
198 199 -72 0
198 -199 72 0
-198 199 72 0
-198 -199 -72 0
200 -74 0
200 -201 0
-200 201 74 0
-201 202 0
-201 204 0
201 -204 -202 0
202 203 -76 0
202 -203 76 0
-202 203 76 0
-202 -203 -76 0
204 -78 0
204 -205 0
-204 205 78 0
-205 206 0
-205 208 0
205 -208 -206 0
206 207 -80 0
206 -207 80 0
-206 207 80 0
-206 -207 -80 0
208 -82 0
208 -209 0
-208 209 82 0
-209 210 0
-209 212 0
209 -212 -210 0
210 211 -84 0
210 -211 84 0
-210 211 84 0
-210 -211 -84 0
212 -86 0
212 -213 0
-212 213 86 0
-213 214 0
-213 216 0
213 -216 -214 0
214 215 -88 0
214 -215 88 0
-214 215 88 0
-214 -215 -88 0
216 -90 0
216 -217 0
-216 217 90 0
-217 218 0
-217 220 0
217 -220 -218 0
218 219 -92 0
218 -219 92 0
-218 219 92 0
-218 -219 -92 0
220 -94 0
220 -221 0
-220 221 94 0
-221 222 0
-221 224 0
221 -224 -222 0
222 223 -96 0
222 -223 96 0
-222 223 96 0
-222 -223 -96 0
224 -98 0
224 -225 0
-224 225 98 0
-225 226 0
-225 228 0
225 -228 -226 0
226 227 -100 0
226 -227 100 0
-226 227 100 0
-226 -227 -100 0
228 -102 0
228 -229 0
-228 229 102 0
-229 230 0
-229 232 0
229 -232 -230 0
230 231 -104 0
230 -231 104 0
-230 231 104 0
-230 -231 -104 0
232 -106 0
232 -233 0
-232 233 106 0
-233 234 0
-233 236 0
233 -236 -234 0
234 235 -108 0
234 -235 108 0
-234 235 108 0
-234 -235 -108 0
236 -110 0
236 -237 0
-236 237 110 0
-237 238 0
-237 240 0
237 -240 -238 0
238 239 -112 0
238 -239 112 0
-238 239 112 0
-238 -239 -112 0
240 -114 0
240 -241 0
-240 241 114 0
-241 242 0
-241 244 0
241 -244 -242 0
242 243 -116 0
242 -243 116 0
-242 243 116 0
-242 -243 -116 0
244 -118 0
244 -245 0
-244 245 118 0
-245 246 0
-245 248 0
245 -248 -246 0
246 247 -120 0
246 -247 120 0
-246 247 120 0
-246 -247 -120 0
248 -122 0
248 -249 0
-248 249 122 0
-249 250 0
-249 252 0
249 -252 -250 0
250 251 -124 0
250 -251 124 0
-250 251 124 0
-250 -251 -124 0
252 -126 0
252 -253 0
-252 253 126 0
-253 254 0
-253 256 0
253 -256 -254 0
254 255 -128 0
254 -255 128 0
-254 255 128 0
-254 -255 -128 0
256 -130 0
256 -257 0
-256 257 130 0
-257 258 0
-257 260 0
257 -260 -258 0
258 259 -132 0
258 -259 132 0
-258 259 132 0
-258 -259 -132 0
260 -134 0
260 -261 0
-260 261 134 0
-261 262 0
-261 264 0
261 -264 -262 0
262 263 -136 0
262 -263 136 0
-262 263 136 0
-262 -263 -136 0
264 -138 0
264 -265 0
-264 265 138 0
-265 266 0
-265 268 0
265 -268 -266 0
266 267 -140 0
266 -267 140 0
-266 267 140 0
-266 -267 -140 0
268 -142 0
268 -269 0
-268 269 142 0
-269 270 0
-269 272 0
269 -272 -270 0
270 271 -144 0
270 -271 144 0
-270 271 144 0
-270 -271 -144 0
272 -146 0
272 -273 0
-272 273 146 0
-273 274 0
-273 276 0
273 -276 -274 0
274 275 -148 0
274 -275 148 0
-274 275 148 0
-274 -275 -148 0
276 -150 0
276 -277 0
-276 277 150 0
-277 278 0
-277 280 0
277 -280 -278 0
278 279 -152 0
278 -279 152 0
-278 279 152 0
-278 -279 -152 0
280 -154 0
280 -281 0
-280 281 154 0
-281 282 0
-281 284 0
281 -284 -282 0
282 283 -156 0
282 -283 156 0
-282 283 156 0
-282 -283 -156 0
284 -158 0
284 -285 0
-284 285 158 0
-285 286 0
-285 288 0
285 -288 -286 0
286 287 -160 0
286 -287 160 0
-286 287 160 0
-286 -287 -160 0
288 -162 0
288 -289 0
-288 289 162 0
-289 290 0
-289 292 0
289 -292 -290 0
290 291 -164 0
290 -291 164 0
-290 291 164 0
-290 -291 -164 0
292 -166 0
292 -293 0
-292 293 166 0
-293 294 0
-293 296 0
293 -296 -294 0
294 295 -168 0
294 -295 168 0
-294 295 168 0
-294 -295 -168 0
296 -170 0
296 -297 0
-296 297 170 0
-297 298 0
-297 300 0
297 -300 -298 0
298 299 -172 0
298 -299 172 0
-298 299 172 0
-298 -299 -172 0
300 -174 0
300 -301 0
-300 301 174 0
-301 302 0
-301 304 0
301 -304 -302 0
302 303 -176 0
302 -303 176 0
-302 303 176 0
-302 -303 -176 0
304 -178 0
304 -305 0
-304 305 178 0
-305 306 0
-305 308 0
305 -308 -306 0
306 307 -180 0
306 -307 180 0
-306 307 180 0
-306 -307 -180 0
308 -182 0
308 -309 0
-308 309 182 0
-309 310 0
-309 312 0
309 -312 -310 0
310 311 -184 0
310 -311 184 0
-310 311 184 0
-310 -311 -184 0
312 -186 0
312 -313 0
-312 313 186 0
-313 314 0
-313 316 0
313 -316 -314 0
314 315 -188 0
314 -315 188 0
-314 315 188 0
-314 -315 -188 0
316 -190 0
316 -317 0
-316 317 190 0
-317 318 0
-317 319 0
317 -319 -318 0
319 320 -192 0
319 -320 192 0
-319 320 192 0
-319 -320 -192 0
